(set-logic QF_S)
(declare-fun var0 () String)
(declare-fun var1 () String)
(declare-fun var2 () String)
(declare-fun var3 () String)
(declare-fun var4 () Int)
(assert (not false))
(assert (< (str.to.int "L+h") (str.len "qH~9>y!:]#")))
(assert (str.in.re var0 re.allchar))
(assert (>= (str.len var1) (str.indexof var2 var3 var4)))
(check-sat)